db/data/4141906741787905316841157173489351.z3.out
-------------------
2500.303728221
